36
75
52	3
51	4
50	2
49	4
48	2
47	4
46	2
45	4
44	2
43	1
42	1
41	4
40	2
39	3
37	3
36	4
34	3
33	2
32	2
31	2
30	4
29	1
28	1
27	1
26	6
25	6
24	1
23	4
22	2
21	4
20	4
19	2
18	3
17	4
16	2
15	1
